
Log started (V11.0.0) Sun Apr 13 13:00:50 2008

Tried aggregator 1 time.
Reduced MIP has 150 rows, 5001 columns, and 10050 nonzeros.
Presolve time =    0.05 sec.
Clique table members: 100.
MIP emphasis: balance optimality and feasibility.
MIP search method: dynamic search.
Parallel mode: none, using 1 thread.
Root relaxation solution time =    0.14 sec.

        Nodes                                         Cuts/
   Node  Left     Objective  IInf  Best Integer     Best Node    ItCnt     Gap

*     0+    0                         5496.0000        6.4472      751   99.88%
*     0+    0                           18.0000        6.4472      751   64.18%
      0     0        7.3291    67       18.0000      Fract: 5      791   59.28%
*     0+    0                           13.0000        7.3291      791   43.62%
      0     0        9.0000    30       13.0000      Cuts: 46      825   30.77%
*     0+    0                           12.0000        9.0000      825   25.00%
      0     0        9.0000    18       12.0000      Cuts: 13      840   25.00%
*     0+    0                           11.0000        9.0000      840   18.18%
      0     0        9.0000    19       11.0000       Cuts: 3      847   18.18%
*     0+    0                           10.0000        9.0000      847   10.00%
      0     0        9.0000    18       10.0000   Flowcuts: 6      862   10.00%
*     0+    0                            9.0000        9.0000      862    0.00%

Clique cuts applied:  7
Implied bound cuts applied:  2
Flow cuts applied:  7
Mixed integer rounding cuts applied:  13
Zero-half cuts applied:  5
Gomory fractional cuts applied:  1

Solution pool: 7 solutions saved.

MIP - Integer optimal solution:  Objective = 9.0000000000e+000
Solution time =    0.44 sec.  Iterations = 862  Nodes = 0


Incumbent solution
Variable Name           Solution Value
Cmax                          9.000000
X_1_43                        1.000000
X_2_20                        1.000000
X_3_3                         1.000000
X_4_19                        1.000000
X_5_35                        1.000000
X_6_14                        1.000000
X_7_24                        1.000000
X_8_17                        1.000000
X_9_27                        1.000000
X_10_13                       1.000000
X_11_25                       1.000000
X_12_22                       1.000000
X_13_26                       1.000000
X_14_50                       1.000000
X_15_24                       1.000000
X_16_39                       1.000000
X_17_2                        1.000000
X_18_49                       1.000000
X_19_8                        1.000000
X_20_46                       1.000000
X_21_11                       1.000000
X_22_35                       1.000000
X_23_29                       1.000000
X_24_15                       1.000000
X_25_4                        1.000000
X_26_37                       1.000000
X_27_35                       1.000000
X_28_33                       1.000000
X_29_7                        1.000000
X_30_36                       1.000000
X_31_30                       1.000000
X_32_23                       1.000000
X_33_24                       1.000000
X_34_31                       1.000000
X_35_12                       1.000000
X_36_44                       1.000000
X_37_14                       1.000000
X_38_31                       1.000000
X_39_34                       1.000000
X_40_32                       1.000000
X_41_9                        1.000000
X_42_26                       1.000000
X_43_38                       1.000000
X_44_21                       1.000000
X_45_11                       1.000000
X_46_34                       1.000000
X_47_50                       1.000000
X_48_10                       1.000000
X_49_34                       1.000000
X_50_5                        1.000000
X_51_46                       1.000000
X_52_4                        1.000000
X_53_11                       1.000000
X_54_28                       1.000000
X_55_43                       1.000000
X_56_14                       1.000000
X_57_29                       1.000000
X_58_18                       1.000000
X_59_45                       1.000000
X_60_40                       1.000000
X_61_26                       1.000000
X_62_48                       1.000000
X_63_31                       1.000000
X_64_30                       1.000000
X_65_17                       1.000000
X_66_12                       1.000000
X_67_43                       1.000000
X_68_1                        1.000000
X_69_8                        1.000000
X_70_24                       1.000000
X_71_49                       1.000000
X_72_30                       1.000000
X_73_31                       1.000000
X_74_50                       1.000000
X_75_45                       1.000000
X_76_38                       1.000000
X_77_28                       1.000000
X_78_14                       1.000000
X_79_29                       1.000000
X_80_19                       1.000000
X_81_27                       1.000000
X_82_15                       1.000000
X_83_21                       1.000000
X_84_47                       1.000000
X_85_40                       1.000000
X_86_10                       1.000000
X_87_35                       1.000000
X_88_47                       1.000000
X_89_16                       1.000000
X_90_4                        1.000000
X_91_22                       1.000000
X_92_6                        1.000000
X_93_40                       1.000000
X_94_32                       1.000000
X_95_4                        1.000000
X_96_19                       1.000000
X_97_16                       1.000000
X_98_42                       1.000000
X_99_21                       1.000000
X_100_9                       1.000000
All other variables in the range 1-5001 are 0.
